p cnf 1650
-1 -1
-2 -11
-3 -15
-4 -19
-5 -23
-6 -27
-7 -31
-8 -35
-9 -1
-9 2
1 -2 9
-10 1
-10 -2
-1 2 10
-11 -9
-11 -10
9 10 11
-12 1
-12 2
-1 -2 12
-13 3
-13 -12
-3 12 13
-14 -3
-14 12
3 -12 14
-15 -13
-15 -14
13 14 15
-16 3
-16 12
-3 -12 16
-17 4
-17 -16
-4 16 17
-18 -4
-18 16
4 -16 18
-19 -17
-19 -18
17 18 19
-20 4
-20 16
-4 -16 20
-21 5
-21 -20
-5 20 21
-22 -5
-22 20
5 -20 22
-23 -21
-23 -22
21 22 23
-24 5
-24 20
-5 -20 24
-25 6
-25 -24
-6 24 25
-26 -6
-26 24
6 -24 26
-27 -25
-27 -26
25 26 27
-28 6
-28 24
-6 -24 28
-29 7
-29 -28
-7 28 29
-30 -7
-30 28
7 -28 30
-31 -29
-31 -30
29 30 31
-32 7
-32 28
-7 -28 32
-33 8
-33 -32
-8 32 33
-34 -8
-34 32
8 -32 34
-35 -33
-35 -34
33 34 35
-36 8
-36 32
-8 -32 36
-37 1
-37 3
-1 -3 37
-38 1
-38 4
-1 -4 38
-39 1
-39 5
-1 -5 39
-40 1
-40 6
-1 -6 40
-41 1
-41 7
-1 -7 41
-42 1
-42 8
-1 -8 42
-43 2
-43 3
-2 -3 43
-44 2
-44 4
-2 -4 44
-45 2
-45 5
-2 -5 45
-46 2
-46 6
-2 -6 46
-47 2
-47 7
-2 -7 47
-48 2
-48 8
-2 -8 48
-49 -2
-49 37
2 -37 49
-50 2
-50 -37
-2 37 50
-51 -49
-51 -50
49 50 51
-52 2
-52 37
-2 -37 52
-53 -12
-53 -51
12 51 53
-54 12
-54 51
-12 -51 54
-55 -53
-55 -54
53 54 55
-56 12
-56 -51
-12 51 56
-57 -52
-57 -56
52 56 57
-58 38
-58 -43
-38 43 58
-59 -38
-59 43
38 -43 59
-60 -58
-60 -59
58 59 60
-61 38
-61 43
-38 -43 61
-62 57
-62 -60
-57 60 62
-63 -57
-63 60
57 -60 63
-64 -62
-64 -63
62 63 64
-65 -57
-65 -60
57 60 65
-66 -61
-66 -65
61 65 66
-67 39
-67 -44
-39 44 67
-68 -39
-68 44
39 -44 68
-69 -67
-69 -68
67 68 69
-70 39
-70 44
-39 -44 70
-71 66
-71 -69
-66 69 71
-72 -66
-72 69
66 -69 72
-73 -71
-73 -72
71 72 73
-74 -66
-74 -69
66 69 74
-75 -70
-75 -74
70 74 75
-76 40
-76 -45
-40 45 76
-77 -40
-77 45
40 -45 77
-78 -76
-78 -77
76 77 78
-79 40
-79 45
-40 -45 79
-80 75
-80 -78
-75 78 80
-81 -75
-81 78
75 -78 81
-82 -80
-82 -81
80 81 82
-83 -75
-83 -78
75 78 83
-84 -79
-84 -83
79 83 84
-85 41
-85 -46
-41 46 85
-86 -41
-86 46
41 -46 86
-87 -85
-87 -86
85 86 87
-88 41
-88 46
-41 -46 88
-89 84
-89 -87
-84 87 89
-90 -84
-90 87
84 -87 90
-91 -89
-91 -90
89 90 91
-92 -84
-92 -87
84 87 92
-93 -88
-93 -92
88 92 93
-94 42
-94 -47
-42 47 94
-95 -42
-95 47
42 -47 95
-96 -94
-96 -95
94 95 96
-97 42
-97 47
-42 -47 97
-98 93
-98 -96
-93 96 98
-99 -93
-99 96
93 -96 99
-100 -98
-100 -99
98 99 100
-101 -93
-101 -96
93 96 101
-102 -97
-102 -101
97 101 102
-103 48
-103 102
-48 -102 103
-104 -48
-104 -102
48 102 104
-105 -103
-105 -104
103 104 105
-106 48
-106 -102
-48 102 106
-107 3
-107 4
-3 -4 107
-108 3
-108 5
-3 -5 108
-109 3
-109 6
-3 -6 109
-110 3
-110 7
-3 -7 110
-111 3
-111 8
-3 -8 111
-112 -37
-112 -55
37 55 112
-113 37
-113 55
-37 -55 113
-114 -112
-114 -113
112 113 114
-115 37
-115 -55
-37 55 115
-116 -43
-116 -64
43 64 116
-117 43
-117 64
-43 -64 117
-118 -116
-118 -117
116 117 118
-119 43
-119 -64
-43 64 119
-120 -115
-120 -118
115 118 120
-121 115
-121 118
-115 -118 121
-122 -120
-122 -121
120 121 122
-123 115
-123 -118
-115 118 123
-124 -119
-124 -123
119 123 124
-125 -3
-125 -73
3 73 125
-126 3
-126 73
-3 -73 126
-127 -125
-127 -126
125 126 127
-128 3
-128 -73
-3 73 128
-129 124
-129 -127
-124 127 129
-130 -124
-130 127
124 -127 130
-131 -129
-131 -130
129 130 131
-132 -124
-132 -127
124 127 132
-133 -128
-133 -132
128 132 133
-134 -82
-134 -107
82 107 134
-135 82
-135 107
-82 -107 135
-136 -134
-136 -135
134 135 136
-137 -82
-137 107
82 -107 137
-138 133
-138 -136
-133 136 138
-139 -133
-139 136
133 -136 139
-140 -138
-140 -139
138 139 140
-141 -133
-141 -136
133 136 141
-142 -137
-142 -141
137 141 142
-143 -91
-143 -108
91 108 143
-144 91
-144 108
-91 -108 144
-145 -143
-145 -144
143 144 145
-146 -91
-146 108
91 -108 146
-147 142
-147 -145
-142 145 147
-148 -142
-148 145
142 -145 148
-149 -147
-149 -148
147 148 149
-150 -142
-150 -145
142 145 150
-151 -146
-151 -150
146 150 151
-152 -100
-152 -109
100 109 152
-153 100
-153 109
-100 -109 153
-154 -152
-154 -153
152 153 154
-155 -100
-155 109
100 -109 155
-156 151
-156 -154
-151 154 156
-157 -151
-157 154
151 -154 157
-158 -156
-158 -157
156 157 158
-159 -151
-159 -154
151 154 159
-160 -155
-160 -159
155 159 160
-161 -105
-161 -110
105 110 161
-162 105
-162 110
-105 -110 162
-163 -161
-163 -162
161 162 163
-164 -105
-164 110
105 -110 164
-165 160
-165 -163
-160 163 165
-166 -160
-166 163
160 -163 166
-167 -165
-167 -166
165 166 167
-168 -160
-168 -163
160 163 168
-169 -164
-169 -168
164 168 169
-170 106
-170 -111
-106 111 170
-171 -106
-171 111
106 -111 171
-172 -170
-172 -171
170 171 172
-173 106
-173 111
-106 -111 173
-174 169
-174 -172
-169 172 174
-175 -169
-175 172
169 -172 175
-176 -174
-176 -175
174 175 176
-177 -169
-177 -172
169 172 177
-178 -173
-178 -177
173 177 178
-179 4
-179 5
-4 -5 179
-180 4
-180 6
-4 -6 180
-181 4
-181 7
-4 -7 181
-182 4
-182 8
-4 -8 182
-183 -38
-183 -122
38 122 183
-184 38
-184 122
-38 -122 184
-185 -183
-185 -184
183 184 185
-186 38
-186 -122
-38 122 186
-187 -44
-187 -131
44 131 187
-188 44
-188 131
-44 -131 188
-189 -187
-189 -188
187 188 189
-190 44
-190 -131
-44 131 190
-191 -186
-191 -189
186 189 191
-192 186
-192 189
-186 -189 192
-193 -191
-193 -192
191 192 193
-194 186
-194 -189
-186 189 194
-195 -190
-195 -194
190 194 195
-196 -107
-196 -140
107 140 196
-197 107
-197 140
-107 -140 197
-198 -196
-198 -197
196 197 198
-199 107
-199 -140
-107 140 199
-200 195
-200 -198
-195 198 200
-201 -195
-201 198
195 -198 201
-202 -200
-202 -201
200 201 202
-203 -195
-203 -198
195 198 203
-204 -199
-204 -203
199 203 204
-205 -4
-205 -149
4 149 205
-206 4
-206 149
-4 -149 206
-207 -205
-207 -206
205 206 207
-208 4
-208 -149
-4 149 208
-209 204
-209 -207
-204 207 209
-210 -204
-210 207
204 -207 210
-211 -209
-211 -210
209 210 211
-212 -204
-212 -207
204 207 212
-213 -208
-213 -212
208 212 213
-214 -158
-214 -179
158 179 214
-215 158
-215 179
-158 -179 215
-216 -214
-216 -215
214 215 216
-217 -158
-217 179
158 -179 217
-218 213
-218 -216
-213 216 218
-219 -213
-219 216
213 -216 219
-220 -218
-220 -219
218 219 220
-221 -213
-221 -216
213 216 221
-222 -217
-222 -221
217 221 222
-223 -167
-223 -180
167 180 223
-224 167
-224 180
-167 -180 224
-225 -223
-225 -224
223 224 225
-226 -167
-226 180
167 -180 226
-227 222
-227 -225
-222 225 227
-228 -222
-228 225
222 -225 228
-229 -227
-229 -228
227 228 229
-230 -222
-230 -225
222 225 230
-231 -226
-231 -230
226 230 231
-232 -176
-232 -181
176 181 232
-233 176
-233 181
-176 -181 233
-234 -232
-234 -233
232 233 234
-235 -176
-235 181
176 -181 235
-236 231
-236 -234
-231 234 236
-237 -231
-237 234
231 -234 237
-238 -236
-238 -237
236 237 238
-239 -231
-239 -234
231 234 239
-240 -235
-240 -239
235 239 240
-241 -178
-241 -182
178 182 241
-242 178
-242 182
-178 -182 242
-243 -241
-243 -242
241 242 243
-244 -178
-244 182
178 -182 244
-245 240
-245 -243
-240 243 245
-246 -240
-246 243
240 -243 246
-247 -245
-247 -246
245 246 247
-248 -240
-248 -243
240 243 248
-249 -244
-249 -248
244 248 249
-250 5
-250 6
-5 -6 250
-251 5
-251 7
-5 -7 251
-252 5
-252 8
-5 -8 252
-253 -39
-253 -193
39 193 253
-254 39
-254 193
-39 -193 254
-255 -253
-255 -254
253 254 255
-256 39
-256 -193
-39 193 256
-257 -45
-257 -202
45 202 257
-258 45
-258 202
-45 -202 258
-259 -257
-259 -258
257 258 259
-260 45
-260 -202
-45 202 260
-261 -256
-261 -259
256 259 261
-262 256
-262 259
-256 -259 262
-263 -261
-263 -262
261 262 263
-264 256
-264 -259
-256 259 264
-265 -260
-265 -264
260 264 265
-266 -108
-266 -211
108 211 266
-267 108
-267 211
-108 -211 267
-268 -266
-268 -267
266 267 268
-269 108
-269 -211
-108 211 269
-270 265
-270 -268
-265 268 270
-271 -265
-271 268
265 -268 271
-272 -270
-272 -271
270 271 272
-273 -265
-273 -268
265 268 273
-274 -269
-274 -273
269 273 274
-275 -179
-275 -220
179 220 275
-276 179
-276 220
-179 -220 276
-277 -275
-277 -276
275 276 277
-278 179
-278 -220
-179 220 278
-279 274
-279 -277
-274 277 279
-280 -274
-280 277
274 -277 280
-281 -279
-281 -280
279 280 281
-282 -274
-282 -277
274 277 282
-283 -278
-283 -282
278 282 283
-284 -5
-284 -229
5 229 284
-285 5
-285 229
-5 -229 285
-286 -284
-286 -285
284 285 286
-287 5
-287 -229
-5 229 287
-288 283
-288 -286
-283 286 288
-289 -283
-289 286
283 -286 289
-290 -288
-290 -289
288 289 290
-291 -283
-291 -286
283 286 291
-292 -287
-292 -291
287 291 292
-293 -238
-293 -250
238 250 293
-294 238
-294 250
-238 -250 294
-295 -293
-295 -294
293 294 295
-296 -238
-296 250
238 -250 296
-297 292
-297 -295
-292 295 297
-298 -292
-298 295
292 -295 298
-299 -297
-299 -298
297 298 299
-300 -292
-300 -295
292 295 300
-301 -296
-301 -300
296 300 301
-302 -247
-302 -251
247 251 302
-303 247
-303 251
-247 -251 303
-304 -302
-304 -303
302 303 304
-305 -247
-305 251
247 -251 305
-306 301
-306 -304
-301 304 306
-307 -301
-307 304
301 -304 307
-308 -306
-308 -307
306 307 308
-309 -301
-309 -304
301 304 309
-310 -305
-310 -309
305 309 310
-311 -249
-311 -252
249 252 311
-312 249
-312 252
-249 -252 312
-313 -311
-313 -312
311 312 313
-314 -249
-314 252
249 -252 314
-315 310
-315 -313
-310 313 315
-316 -310
-316 313
310 -313 316
-317 -315
-317 -316
315 316 317
-318 -310
-318 -313
310 313 318
-319 -314
-319 -318
314 318 319
-320 6
-320 7
-6 -7 320
-321 6
-321 8
-6 -8 321
-322 -40
-322 -263
40 263 322
-323 40
-323 263
-40 -263 323
-324 -322
-324 -323
322 323 324
-325 40
-325 -263
-40 263 325
-326 -46
-326 -272
46 272 326
-327 46
-327 272
-46 -272 327
-328 -326
-328 -327
326 327 328
-329 46
-329 -272
-46 272 329
-330 -325
-330 -328
325 328 330
-331 325
-331 328
-325 -328 331
-332 -330
-332 -331
330 331 332
-333 325
-333 -328
-325 328 333
-334 -329
-334 -333
329 333 334
-335 -109
-335 -281
109 281 335
-336 109
-336 281
-109 -281 336
-337 -335
-337 -336
335 336 337
-338 109
-338 -281
-109 281 338
-339 334
-339 -337
-334 337 339
-340 -334
-340 337
334 -337 340
-341 -339
-341 -340
339 340 341
-342 -334
-342 -337
334 337 342
-343 -338
-343 -342
338 342 343
-344 -180
-344 -290
180 290 344
-345 180
-345 290
-180 -290 345
-346 -344
-346 -345
344 345 346
-347 180
-347 -290
-180 290 347
-348 343
-348 -346
-343 346 348
-349 -343
-349 346
343 -346 349
-350 -348
-350 -349
348 349 350
-351 -343
-351 -346
343 346 351
-352 -347
-352 -351
347 351 352
-353 -250
-353 -299
250 299 353
-354 250
-354 299
-250 -299 354
-355 -353
-355 -354
353 354 355
-356 250
-356 -299
-250 299 356
-357 352
-357 -355
-352 355 357
-358 -352
-358 355
352 -355 358
-359 -357
-359 -358
357 358 359
-360 -352
-360 -355
352 355 360
-361 -356
-361 -360
356 360 361
-362 -6
-362 -308
6 308 362
-363 6
-363 308
-6 -308 363
-364 -362
-364 -363
362 363 364
-365 6
-365 -308
-6 308 365
-366 361
-366 -364
-361 364 366
-367 -361
-367 364
361 -364 367
-368 -366
-368 -367
366 367 368
-369 -361
-369 -364
361 364 369
-370 -365
-370 -369
365 369 370
-371 -317
-371 -320
317 320 371
-372 317
-372 320
-317 -320 372
-373 -371
-373 -372
371 372 373
-374 -317
-374 320
317 -320 374
-375 370
-375 -373
-370 373 375
-376 -370
-376 373
370 -373 376
-377 -375
-377 -376
375 376 377
-378 -370
-378 -373
370 373 378
-379 -374
-379 -378
374 378 379
-380 -319
-380 -321
319 321 380
-381 319
-381 321
-319 -321 381
-382 -380
-382 -381
380 381 382
-383 -319
-383 321
319 -321 383
-384 379
-384 -382
-379 382 384
-385 -379
-385 382
379 -382 385
-386 -384
-386 -385
384 385 386
-387 -379
-387 -382
379 382 387
-388 -383
-388 -387
383 387 388
-389 7
-389 8
-7 -8 389
-390 -41
-390 -332
41 332 390
-391 41
-391 332
-41 -332 391
-392 -390
-392 -391
390 391 392
-393 41
-393 -332
-41 332 393
-394 -47
-394 -341
47 341 394
-395 47
-395 341
-47 -341 395
-396 -394
-396 -395
394 395 396
-397 47
-397 -341
-47 341 397
-398 -393
-398 -396
393 396 398
-399 393
-399 396
-393 -396 399
-400 -398
-400 -399
398 399 400
-401 393
-401 -396
-393 396 401
-402 -397
-402 -401
397 401 402
-403 -110
-403 -350
110 350 403
-404 110
-404 350
-110 -350 404
-405 -403
-405 -404
403 404 405
-406 110
-406 -350
-110 350 406
-407 402
-407 -405
-402 405 407
-408 -402
-408 405
402 -405 408
-409 -407
-409 -408
407 408 409
-410 -402
-410 -405
402 405 410
-411 -406
-411 -410
406 410 411
-412 -181
-412 -359
181 359 412
-413 181
-413 359
-181 -359 413
-414 -412
-414 -413
412 413 414
-415 181
-415 -359
-181 359 415
-416 411
-416 -414
-411 414 416
-417 -411
-417 414
411 -414 417
-418 -416
-418 -417
416 417 418
-419 -411
-419 -414
411 414 419
-420 -415
-420 -419
415 419 420
-421 -251
-421 -368
251 368 421
-422 251
-422 368
-251 -368 422
-423 -421
-423 -422
421 422 423
-424 251
-424 -368
-251 368 424
-425 420
-425 -423
-420 423 425
-426 -420
-426 423
420 -423 426
-427 -425
-427 -426
425 426 427
-428 -420
-428 -423
420 423 428
-429 -424
-429 -428
424 428 429
-430 -320
-430 -377
320 377 430
-431 320
-431 377
-320 -377 431
-432 -430
-432 -431
430 431 432
-433 320
-433 -377
-320 377 433
-434 429
-434 -432
-429 432 434
-435 -429
-435 432
429 -432 435
-436 -434
-436 -435
434 435 436
-437 -429
-437 -432
429 432 437
-438 -433
-438 -437
433 437 438
-439 -7
-439 -386
7 386 439
-440 7
-440 386
-7 -386 440
-441 -439
-441 -440
439 440 441
-442 7
-442 -386
-7 386 442
-443 438
-443 -441
-438 441 443
-444 -438
-444 441
438 -441 444
-445 -443
-445 -444
443 444 445
-446 -438
-446 -441
438 441 446
-447 -442
-447 -446
442 446 447
-448 -388
-448 -389
388 389 448
-449 388
-449 389
-388 -389 449
-450 -448
-450 -449
448 449 450
-451 -388
-451 389
388 -389 451
-452 447
-452 -450
-447 450 452
-453 -447
-453 450
447 -450 453
-454 -452
-454 -453
452 453 454
-455 -447
-455 -450
447 450 455
-456 -451
-456 -455
451 455 456
-457 -42
-457 -400
42 400 457
-458 42
-458 400
-42 -400 458
-459 -457
-459 -458
457 458 459
-460 42
-460 -400
-42 400 460
-461 -48
-461 -409
48 409 461
-462 48
-462 409
-48 -409 462
-463 -461
-463 -462
461 462 463
-464 48
-464 -409
-48 409 464
-465 -460
-465 -463
460 463 465
-466 460
-466 463
-460 -463 466
-467 -465
-467 -466
465 466 467
-468 460
-468 -463
-460 463 468
-469 -464
-469 -468
464 468 469
-470 -111
-470 -418
111 418 470
-471 111
-471 418
-111 -418 471
-472 -470
-472 -471
470 471 472
-473 111
-473 -418
-111 418 473
-474 469
-474 -472
-469 472 474
-475 -469
-475 472
469 -472 475
-476 -474
-476 -475
474 475 476
-477 -469
-477 -472
469 472 477
-478 -473
-478 -477
473 477 478
-479 -182
-479 -427
182 427 479
-480 182
-480 427
-182 -427 480
-481 -479
-481 -480
479 480 481
-482 182
-482 -427
-182 427 482
-483 478
-483 -481
-478 481 483
-484 -478
-484 481
478 -481 484
-485 -483
-485 -484
483 484 485
-486 -478
-486 -481
478 481 486
-487 -482
-487 -486
482 486 487
-488 -252
-488 -436
252 436 488
-489 252
-489 436
-252 -436 489
-490 -488
-490 -489
488 489 490
-491 252
-491 -436
-252 436 491
-492 487
-492 -490
-487 490 492
-493 -487
-493 490
487 -490 493
-494 -492
-494 -493
492 493 494
-495 -487
-495 -490
487 490 495
-496 -491
-496 -495
491 495 496
-497 -321
-497 -445
321 445 497
-498 321
-498 445
-321 -445 498
-499 -497
-499 -498
497 498 499
-500 321
-500 -445
-321 445 500
-501 496
-501 -499
-496 499 501
-502 -496
-502 499
496 -499 502
-503 -501
-503 -502
501 502 503
-504 -496
-504 -499
496 499 504
-505 -500
-505 -504
500 504 505
-506 -389
-506 -454
389 454 506
-507 389
-507 454
-389 -454 507
-508 -506
-508 -507
506 507 508
-509 389
-509 -454
-389 454 509
-510 505
-510 -508
-505 508 510
-511 -505
-511 508
505 -508 511
-512 -510
-512 -511
510 511 512
-513 -505
-513 -508
505 508 513
-514 -509
-514 -513
509 513 514
-515 -8
-515 -456
8 456 515
-516 8
-516 456
-8 -456 516
-517 -515
-517 -516
515 516 517
-518 8
-518 -456
-8 456 518
-519 514
-519 -517
-514 517 519
-520 -514
-520 517
514 -517 520
-521 -519
-521 -520
519 520 521
-522 -514
-522 -517
514 517 522
-523 -518
-523 -522
518 522 523
-524 467
-524 476
-467 -476 524
-525 485
-525 494
-485 -494 525
-526 503
-526 512
-503 -512 526
-527 521
-527 523
-521 -523 527
-528 524
-528 525
-524 -525 528
-529 526
-529 527
-526 -527 529
-530 528
-530 529
-528 -529 530
-531 3
-531 114
-3 -114 531
-532 -3
-532 -114
3 114 532
-533 2
-533 -532
-2 532 533
-534 -531
-534 -533
531 533 534
-535 4
-535 185
-4 -185 535
-536 -4
-536 -185
4 185 536
-537 -534
-537 -536
534 536 537
-538 -535
-538 -537
535 537 538
-539 5
-539 255
-5 -255 539
-540 -5
-540 -255
5 255 540
-541 -538
-541 -540
538 540 541
-542 -539
-542 -541
539 541 542
-543 6
-543 324
-6 -324 543
-544 -6
-544 -324
6 324 544
-545 -542
-545 -544
542 544 545
-546 -543
-546 -545
543 545 546
-547 7
-547 392
-7 -392 547
-548 -7
-548 -392
7 392 548
-549 -546
-549 -548
546 548 549
-550 -547
-550 -549
547 549 550
-551 8
-551 459
-8 -459 551
-552 -8
-552 -459
8 459 552
-553 -550
-553 -552
550 552 553
-554 -551
-554 -553
551 553 554
-555 530
-555 -554
-530 554 555
555
